NAME : CC35.1230644.tour
COMMENT : Cost = 0_1230644
COMMENT : Found by LKH [Keld Helsgaun] Sun Apr 23 15:14:36 2017
TYPE : TOUR
DIMENSION : 73
TOUR_SECTION
1
33
68
30
65
14
49
4
39
6
41
27
62
22
57
29
31
64
66
9
44
73
35
70
36
71
28
63
18
8
43
32
53
67
20
55
10
45
34
24
69
21
56
2
37
59
19
54
72
7
42
13
48
5
40
3
38
16
51
11
46
23
58
15
50
12
47
17
26
52
61
25
60
-1
EOF
